(set-info :smt-lib-version 2.7)
(set-logic QF_NIA)
(set-info :source  | 
Generated by: Johannes Bauer
Generated on: 2026-06-18
Generator: mgm A12 Test Data Generator
Application: ELSTER
Target solver: Z3, Yices2, CVC5
Script is based on the ELSTER form: capital gains tax registration (A / KapEStInvStG)
Characteristic of the form: easy.
In this script, all terms of the form (* x1 x2 x3 ...) are in the form (* x1 c2 c3 ...),
all terms of the form (div x y) are in the form (div x c) and the symbol mod is exclusively used in the form (mod x c),
where x, y, and x1, x2, x3 ... are free constants and c, c2, c3 ... are terms in the form n or (-n) for some numeral n.
The script starts with the base constraints, which define a valid data set for the corresponding form. After the first (push 1), control constraints follow.
The goal of the control constraints in this script is to fill up a data set with values, after the characteristics of the high test coverage were placed.
number variables: 133, number constraints: 158
"https://www.elster.de/eportal/start?locale=en_US"
"https://www.mgm-tp.com/q12-tdg.html"
"https://a12.ai/public-sector"
|)
(set-info :license "https://creativecommons.org/licenses/by/4.0/")
(set-info :category "industrial")
(set-info :major-phase |variable declarations|)
(declare-fun I1-i () Int)
(declare-fun I2-N () Int)
(declare-fun B3-F () Bool)
(declare-fun I3-i () Int)
(declare-fun B4-F () Bool)
(declare-fun B5-F () Bool)
(declare-fun I5-y () Int)
(declare-fun B6-F () Bool)
(declare-fun I6-N () Int)
(declare-fun B7-F () Bool)
(declare-fun I8-N () Int)
(declare-fun I9-y () Int)
(declare-fun I9-m () Int)
(declare-fun I9-d () Int)
(declare-fun I10-y () Int)
(declare-fun I10-m () Int)
(declare-fun I10-d () Int)
(declare-fun I11 () Int)
(declare-fun I12 () Int)
(declare-fun I13 () Int)
(declare-fun I14 () Int)
(declare-fun I15-s-y () Int)
(declare-fun I15-s-m () Int)
(declare-fun I15-s-d () Int)
(declare-fun I15-e-y () Int)
(declare-fun I15-e-m () Int)
(declare-fun I15-e-d () Int)
(declare-fun I16-y () Int)
(declare-fun I16-m () Int)
(declare-fun I16-d () Int)
(declare-fun I17-y () Int)
(declare-fun I17-m () Int)
(declare-fun I17-d () Int)
(declare-fun I18 () Int)
(declare-fun I19 () Int)
(declare-fun I20-s-y () Int)
(declare-fun I20-s-m () Int)
(declare-fun I20-s-d () Int)
(declare-fun I20-e-y () Int)
(declare-fun I20-e-m () Int)
(declare-fun I20-e-d () Int)
(declare-fun I21-y () Int)
(declare-fun I21-m () Int)
(declare-fun I21-d () Int)
(declare-fun I22-y () Int)
(declare-fun I22-m () Int)
(declare-fun I22-d () Int)
(declare-fun I23 () Int)
(declare-fun I24 () Int)
(declare-fun I25 () Int)
(declare-fun I26-N () Int)
(declare-fun I27-y () Int)
(declare-fun I27-m () Int)
(declare-fun I27-d () Int)
(declare-fun I28-y () Int)
(declare-fun I28-m () Int)
(declare-fun I28-d () Int)
(declare-fun I29-y () Int)
(declare-fun I29-m () Int)
(declare-fun I29-d () Int)
(declare-fun I30 () Int)
(declare-fun I31 () Int)
(declare-fun I32 () Int)
(declare-fun I33 () Int)
(declare-fun I34 () Int)
(declare-fun I35 () Int)
(declare-fun I36-y () Int)
(declare-fun I36-m () Int)
(declare-fun I36-d () Int)
(declare-fun I37 () Int)
(declare-fun I38 () Int)
(declare-fun I39 () Int)
(declare-fun I40 () Int)
(declare-fun I41 () Int)
(declare-fun I42 () Int)
(declare-fun I43 () Int)
(declare-fun I44 () Int)
(declare-fun B45-F () Bool)
(declare-fun B46-F () Bool)
(declare-fun I46 () Int)
(declare-fun B47-F () Bool)
(declare-fun I47 () Int)
(declare-fun B48-F () Bool)
(declare-fun I48 () Int)
(declare-fun I49 () Int)
(declare-fun I50 () Int)
(declare-fun B51-F () Bool)
(declare-fun I51-y () Int)
(declare-fun I51-m () Int)
(declare-fun I51-d () Int)
(declare-fun B52-F () Bool)
(declare-fun B53-F () Bool)
(declare-fun I53 () Int)
(declare-fun B54-F () Bool)
(declare-fun I54 () Int)
(declare-fun B55-F () Bool)
(declare-fun I55 () Int)
(declare-fun B56-F () Bool)
(declare-fun I56 () Int)
(declare-fun B57-F () Bool)
(declare-fun I57 () Int)
(declare-fun B58-F () Bool)
(declare-fun I58 () Int)
(declare-fun B59-F () Bool)
(declare-fun B60-F () Bool)
(declare-fun B61-F () Bool)
(declare-fun I61 () Int)
(declare-fun B62-F () Bool)
(declare-fun B63-F () Bool)
(declare-fun B64-F () Bool)
(declare-fun I64 () Int)
(declare-fun B65-F () Bool)
(declare-fun I65 () Int)
(declare-fun B66-F () Bool)
(declare-fun I66 () Int)
(declare-fun B67-F () Bool)
(declare-fun I67 () Int)
(declare-fun B68-F () Bool)
(declare-fun I68 () Int)
(declare-fun B69-F () Bool)
(declare-fun I69 () Int)
(declare-fun I70 () Int)
(declare-fun B71-F () Bool)
(declare-fun B72-F () Bool)
(declare-fun B73-F () Bool)
(declare-fun B74-F () Bool)
(declare-fun B75-F () Bool)
(declare-fun B76-F () Bool)
(declare-fun B77-F () Bool)
(declare-fun B78-F () Bool)
(declare-fun B79-F () Bool)
(declare-fun B80-F () Bool)
(declare-fun B81-F () Bool)
(set-info :major-phase |base constraints|)
(set-info :base-constraint-type ||)
(assert (and (>= I28-y (ite B5-F I5-y 0)) (= I28-y (ite B5-F I5-y 0)) (>= I28-m I6-N)))
(set-info :base-constraint-type |constraints defining hierarchy (group is filled, if a child is filled)|)
(assert (not (or B51-F B52-F)))
(assert (= B52-F (or B53-F B54-F)))
(assert (= B71-F (or B72-F B73-F)))
(assert (= B45-F (or B46-F B47-F B48-F)))
(assert (= B74-F (or B75-F B76-F)))
(assert (= B76-F (or B77-F B78-F B79-F B80-F)))
(set-info :base-constraint-type |domainconstraints number-fields|)
(assert (ite B53-F (and (<= I53 999999999999) (>= I53 0)) (= I53 0)))
(assert (ite B54-F (and (<= I54 999999999999) (>= I54 0)) (= I54 0)))
(assert (and (<= I49 999999999999) (>= I49 (- 999999999999))))
(assert (and (<= I50 99999999999999) (>= I50 (- 99999999999999))))
(assert (and (<= I11 999999999999) (>= I11 (- 999999999999))))
(assert (and (<= I12 999999999999) (>= I12 (- 999999999999))))
(assert (and (<= I13 999999999999) (>= I13 (- 999999999999))))
(assert (and (<= I14 99999999999999) (>= I14 (- 99999999999999))))
(assert (and (<= I30 999999999999) (>= I30 (- 999999999999))))
(assert (and (<= I31 999999999999) (>= I31 (- 999999999999))))
(assert (and (<= I32 999999999999) (>= I32 (- 999999999999))))
(assert (and (<= I33 999999999999) (>= I33 (- 999999999999))))
(assert (and (<= I34 999999999999) (>= I34 (- 999999999999))))
(assert (and (<= I35 99999999999999) (>= I35 (- 99999999999999))))
(assert (and (<= I37 999999999999) (>= I37 0)))
(assert (and (<= I38 999999999999) (>= I38 0)))
(assert (and (<= I39 99999999999999) (>= I39 0)))
(assert (and (<= I40 999999999999) (>= I40 0)))
(assert (and (<= I41 99999999999999) (>= I41 0)))
(assert (and (<= I42 999999999999) (>= I42 0)))
(assert (and (<= I43 999999999999) (>= I43 0)))
(assert (and (<= I44 99999999999999) (>= I44 0)))
(assert (ite B46-F (and (<= I46 999999999999) (>= I46 (- 999999999999))) (= I46 0)))
(assert (ite B47-F (and (<= I47 999999999999) (>= I47 (- 999999999999))) (= I47 0)))
(assert (ite B48-F (and (<= I48 99999999999999) (>= I48 (- 99999999999999))) (= I48 0)))
(assert (and (<= I18 99999999999999) (>= I18 (- 99999999999999))))
(assert (and (<= I19 99999999999999) (>= I19 (- 99999999999999))))
(assert (and (<= I23 999999999999) (>= I23 (- 999999999999))))
(assert (and (<= I24 999999999999) (>= I24 (- 999999999999))))
(assert (and (<= I25 99999999999999) (>= I25 (- 99999999999999))))
(assert (ite B57-F (and (<= I57 99999999999999) (>= I57 (- 9999999999999))) (= I57 0)))
(assert (ite B55-F (and (<= I55 99999999999999) (>= I55 (- 9999999999999))) (= I55 0)))
(assert (ite B56-F (and (<= I56 99999999999999) (>= I56 (- 9999999999999))) (= I56 0)))
(assert (ite B58-F (and (<= I58 99999999999999) (>= I58 (- 9999999999999))) (= I58 0)))
(assert (ite B60-F true false))
(assert (ite B59-F true false))
(assert (ite B61-F (and (<= I61 99999999999999) (>= I61 (- 9999999999999))) (= I61 0)))
(assert (ite B62-F true false))
(assert (ite B63-F true false))
(assert (ite B64-F (and (<= I64 99999999999999) (>= I64 (- 9999999999999))) (= I64 0)))
(assert (ite B68-F (and (<= I68 99999999999999) (>= I68 (- 9999999999999))) (= I68 0)))
(assert (ite B65-F (and (<= I65 99999999999999) (>= I65 (- 9999999999999))) (= I65 0)))
(assert (ite B66-F (and (<= I66 99999999999999) (>= I66 (- 9999999999999))) (= I66 0)))
(assert (ite B67-F (and (<= I67 99999999999999) (>= I67 (- 9999999999999))) (= I67 0)))
(assert (ite B69-F (and (<= I69 99999999999999) (>= I69 (- 9999999999999))) (= I69 0)))
(assert (and (<= I70 99999999999999) (>= I70 (- 9999999999999))))
(set-info :base-constraint-type |domainconstraints date-fields|)
(assert (and (ite B51-F (and (> I51-y 1900) (< I51-y 2100)) (= I51-y 0)) (ite B51-F (and (> I51-m 0) (<= I51-m 12)) (= I51-m 0)) (ite B51-F (and (> I51-d 0) (<= I51-d (ite (or (= I51-m 0) (= I51-m 1) (= I51-m 3) (= I51-m 5) (= I51-m 7) (= I51-m 8) (= I51-m 10) (= I51-m 12)) 31 (ite (or (= I51-m 4) (= I51-m 6) (= I51-m 9) (= I51-m 11)) 30 (ite (= (mod I51-y 4) 0) 29 28))))) (= I51-d 0))))
(assert (ite B5-F (and (> I5-y 1900) (< I5-y 2100)) (= I5-y 0)))
(assert (and (> I10-y 1900) (< I10-y 2100) (> I10-m 0) (<= I10-m 12) (> I10-d 0) (<= I10-d (ite (or (= I10-m 0) (= I10-m 1) (= I10-m 3) (= I10-m 5) (= I10-m 7) (= I10-m 8) (= I10-m 10) (= I10-m 12)) 31 (ite (or (= I10-m 4) (= I10-m 6) (= I10-m 9) (= I10-m 11)) 30 (ite (= (mod I10-y 4) 0) 29 28))))))
(assert (and (> I9-y 1900) (< I9-y 2100) (> I9-m 0) (<= I9-m 12) (> I9-d 0) (<= I9-d (ite (or (= I9-m 0) (= I9-m 1) (= I9-m 3) (= I9-m 5) (= I9-m 7) (= I9-m 8) (= I9-m 10) (= I9-m 12)) 31 (ite (or (= I9-m 4) (= I9-m 6) (= I9-m 9) (= I9-m 11)) 30 (ite (= (mod I9-y 4) 0) 29 28))))))
(assert (and (> I28-y 1900) (< I28-y 2100) (> I28-m 0) (<= I28-m 12) (> I28-d 0) (<= I28-d (ite (or (= I28-m 0) (= I28-m 1) (= I28-m 3) (= I28-m 5) (= I28-m 7) (= I28-m 8) (= I28-m 10) (= I28-m 12)) 31 (ite (or (= I28-m 4) (= I28-m 6) (= I28-m 9) (= I28-m 11)) 30 (ite (= (mod I28-y 4) 0) 29 28))))))
(assert (and (> I27-y 1900) (< I27-y 2100) (> I27-m 0) (<= I27-m 12) (> I27-d 0) (<= I27-d (ite (or (= I27-m 0) (= I27-m 1) (= I27-m 3) (= I27-m 5) (= I27-m 7) (= I27-m 8) (= I27-m 10) (= I27-m 12)) 31 (ite (or (= I27-m 4) (= I27-m 6) (= I27-m 9) (= I27-m 11)) 30 (ite (= (mod I27-y 4) 0) 29 28))))))
(assert (and (> I29-y 1900) (< I29-y 2100) (> I29-m 0) (<= I29-m 12) (> I29-d 0) (<= I29-d (ite (or (= I29-m 0) (= I29-m 1) (= I29-m 3) (= I29-m 5) (= I29-m 7) (= I29-m 8) (= I29-m 10) (= I29-m 12)) 31 (ite (or (= I29-m 4) (= I29-m 6) (= I29-m 9) (= I29-m 11)) 30 (ite (= (mod I29-y 4) 0) 29 28))))))
(assert (and (> I36-y 1900) (< I36-y 2100) (> I36-m 0) (<= I36-m 12) (> I36-d 0) (<= I36-d (ite (or (= I36-m 0) (= I36-m 1) (= I36-m 3) (= I36-m 5) (= I36-m 7) (= I36-m 8) (= I36-m 10) (= I36-m 12)) 31 (ite (or (= I36-m 4) (= I36-m 6) (= I36-m 9) (= I36-m 11)) 30 (ite (= (mod I36-y 4) 0) 29 28))))))
(assert (and (> I17-y 1900) (< I17-y 2100) (> I17-m 0) (<= I17-m 12) (> I17-d 0) (<= I17-d (ite (or (= I17-m 0) (= I17-m 1) (= I17-m 3) (= I17-m 5) (= I17-m 7) (= I17-m 8) (= I17-m 10) (= I17-m 12)) 31 (ite (or (= I17-m 4) (= I17-m 6) (= I17-m 9) (= I17-m 11)) 30 (ite (= (mod I17-y 4) 0) 29 28))))))
(assert (and (> I16-y 1900) (< I16-y 2100) (> I16-m 0) (<= I16-m 12) (> I16-d 0) (<= I16-d (ite (or (= I16-m 0) (= I16-m 1) (= I16-m 3) (= I16-m 5) (= I16-m 7) (= I16-m 8) (= I16-m 10) (= I16-m 12)) 31 (ite (or (= I16-m 4) (= I16-m 6) (= I16-m 9) (= I16-m 11)) 30 (ite (= (mod I16-y 4) 0) 29 28))))))
(assert (or (< I15-s-y I15-e-y) (and (= I15-s-y I15-e-y) (< I15-s-m I15-e-m)) (and (= I15-s-y I15-e-y) (= I15-s-m I15-e-m) (<= I15-s-d I15-e-d))))
(assert (and (>= I15-e-d 1) (<= I15-e-d (ite (or (= I15-e-m 0) (= I15-e-m 1) (= I15-e-m 3) (= I15-e-m 5) (= I15-e-m 7) (= I15-e-m 8) (= I15-e-m 10) (= I15-e-m 12)) 31 (ite (or (= I15-e-m 4) (= I15-e-m 6) (= I15-e-m 9) (= I15-e-m 11)) 30 (ite (= (mod I15-e-y 4) 0) 29 28))))))
(assert (and (>= I15-e-m 1) (<= I15-e-m 12)))
(assert (and (>= I15-e-y 1901) (<= I15-e-y 2099)))
(assert (and (>= I15-s-d 1) (<= I15-s-d (ite (or (= I15-s-m 0) (= I15-s-m 1) (= I15-s-m 3) (= I15-s-m 5) (= I15-s-m 7) (= I15-s-m 8) (= I15-s-m 10) (= I15-s-m 12)) 31 (ite (or (= I15-s-m 4) (= I15-s-m 6) (= I15-s-m 9) (= I15-s-m 11)) 30 (ite (= (mod I15-s-y 4) 0) 29 28))))))
(assert (and (>= I15-s-m 1) (<= I15-s-m 12)))
(assert (and (>= I15-s-y 1901) (<= I15-s-y 2099)))
(assert (and (> I22-y 1900) (< I22-y 2100) (> I22-m 0) (<= I22-m 12) (> I22-d 0) (<= I22-d (ite (or (= I22-m 0) (= I22-m 1) (= I22-m 3) (= I22-m 5) (= I22-m 7) (= I22-m 8) (= I22-m 10) (= I22-m 12)) 31 (ite (or (= I22-m 4) (= I22-m 6) (= I22-m 9) (= I22-m 11)) 30 (ite (= (mod I22-y 4) 0) 29 28))))))
(assert (and (> I21-y 1900) (< I21-y 2100) (> I21-m 0) (<= I21-m 12) (> I21-d 0) (<= I21-d (ite (or (= I21-m 0) (= I21-m 1) (= I21-m 3) (= I21-m 5) (= I21-m 7) (= I21-m 8) (= I21-m 10) (= I21-m 12)) 31 (ite (or (= I21-m 4) (= I21-m 6) (= I21-m 9) (= I21-m 11)) 30 (ite (= (mod I21-y 4) 0) 29 28))))))
(assert (or (< I20-s-y I20-e-y) (and (= I20-s-y I20-e-y) (< I20-s-m I20-e-m)) (and (= I20-s-y I20-e-y) (= I20-s-m I20-e-m) (<= I20-s-d I20-e-d))))
(assert (and (>= I20-e-d 1) (<= I20-e-d (ite (or (= I20-e-m 0) (= I20-e-m 1) (= I20-e-m 3) (= I20-e-m 5) (= I20-e-m 7) (= I20-e-m 8) (= I20-e-m 10) (= I20-e-m 12)) 31 (ite (or (= I20-e-m 4) (= I20-e-m 6) (= I20-e-m 9) (= I20-e-m 11)) 30 (ite (= (mod I20-e-y 4) 0) 29 28))))))
(assert (and (>= I20-e-m 1) (<= I20-e-m 12)))
(assert (and (>= I20-e-y 1901) (<= I20-e-y 2099)))
(assert (and (>= I20-s-d 1) (<= I20-s-d (ite (or (= I20-s-m 0) (= I20-s-m 1) (= I20-s-m 3) (= I20-s-m 5) (= I20-s-m 7) (= I20-s-m 8) (= I20-s-m 10) (= I20-s-m 12)) 31 (ite (or (= I20-s-m 4) (= I20-s-m 6) (= I20-s-m 9) (= I20-s-m 11)) 30 (ite (= (mod I20-s-y 4) 0) 29 28))))))
(assert (and (>= I20-s-m 1) (<= I20-s-m 12)))
(assert (and (>= I20-s-y 1901) (<= I20-s-y 2099)))
(set-info :base-constraint-type |constraints for date-strategy|)
(assert (and (> I8-N 1900) (< I8-N 2100)))
(assert (and (> I8-N 1900) (< I8-N 2100)))
(set-info :base-constraint-type |domainconstraints string fields|)
(assert (and (>= I8-N 0) (<= I8-N 9999)))
(assert (and (>= I26-N 0) (<= I26-N 9999)))
(set-info :base-constraint-type |domainconstraints index-based string fields|)
(assert (or (= I2-N 0) (= I2-N 1)))
(assert (ite B6-F (or (= I6-N 1) (= I6-N 2) (= I6-N 3) (= I6-N 4) (= I6-N 5) (= I6-N 6) (= I6-N 7) (= I6-N 8) (= I6-N 9) (= I6-N 10) (= I6-N 11) (= I6-N 12)) (= I6-N 0)))
(assert (or (= I1-i 1) (= I1-i 2) (= I1-i 3) (= I1-i 4) (= I1-i 5) (= I1-i 6) (= I1-i 7) (= I1-i 8) (= I1-i 9) (= I1-i 10) (= I1-i 11) (= I1-i 12) (= I1-i 13) (= I1-i 14) (= I1-i 15)))
(assert (ite B3-F (or (= I3-i 1) (= I3-i 2) (= I3-i 3) (= I3-i 4) (= I3-i 5) (= I3-i 6) (= I3-i 7) (= I3-i 8) (= I3-i 9) (= I3-i 10) (= I3-i 11) (= I3-i 12) (= I3-i 13) (= I3-i 14) (= I3-i 15)) (= I3-i 0)))
(set-info :base-constraint-type |constraints from validation-rules|)
(assert (not (and B54-F B53-F (distinct I53 0) (distinct I54 (div (* I53 15) 100)))))
(assert (not (and B51-F (or (< I51-y 2025) (> I51-y 2025)))))
(assert (not (and (or B73-F B72-F) (not (and B73-F B72-F)))))
(assert (not (distinct I49 (+ I11 I13 I24 I30 I32 I34 I38 I40 I43 I47 (- 1000000000048)))))
(assert (not (distinct I50 (+ I14 I18 I19 I25 I35 I39 I41 I44 I48 19615769))))
(assert (not (and B5-F (or (< I5-y 2025) (> I5-y 2025)))))
(assert (not (or (> I10-y I9-y) (and (= I10-y I9-y) (> I10-m I9-m)) (and (= I10-y I9-y) (= I10-m I9-m) (> I10-d I9-d)))))
(assert (not (or (distinct I9-y (ite B5-F I5-y 0)) (distinct I9-m I6-N))))
(assert (not (>= (ite (and (>= I8-N 1) (<= I8-N 9999)) (+ (- I10-y I8-N) (ite (or (< I8-N I10-y) (and (= I8-N I10-y) (< 5 I10-m)) (and (= I8-N I10-y) (= 5 I10-m) (< 1 I10-d)) (and (= I8-N I10-y) (= 5 I10-m) (= 1 I10-d))) (ite (or (< 5 I10-m) (and (= 5 I10-m) (<= 1 I10-d))) 0 (- 1)) (ite (or (> 5 I10-m) (and (= 5 I10-m) (>= 1 I10-d))) 0 1))) 0) 1)))
(assert (not (< I9-y I8-N)))
(assert (not (> I8-N 2025)))
(assert (not (or (= I11 0) (and (distinct I12 0) (= I13 0)))))
(assert (not (> (ite (>= (- 0 (div (* I11 55) 10)) 0) (- 0 (div (* I11 55) 10)) (- (- 0 (div (* I11 55) 10)))) 100)))
(assert (not (or (> (* I11 100) 25) (> (* I13 100) (+ (* I12 15) 100)))))
(assert (not (> (ite (>= (- I14 (div (* I13 55) 10)) 0) (- I14 (div (* I13 55) 10)) (- (- I14 (div (* I13 55) 10)))) 100)))
(assert (not (or (< I28-y I27-y) (and (= I28-y I27-y) (< I28-m I27-m)) (and (= I28-y I27-y) (= I28-m I27-m) (< I28-d I27-d)) (and (= I28-y I27-y) (= I28-m I27-m) (= I28-d I27-d)))))
(assert (not (< I28-y I26-N)))
(assert (not (or (< I28-y I29-y) (and (= I28-y I29-y) (< I28-m I29-m)) (and (= I28-y I29-y) (= I28-m I29-m) (< I28-d I29-d)))))
(assert (not (or (< I28-y (ite B5-F I5-y 0)) (and (= I28-y (ite B5-F I5-y 0)) (< I28-m I6-N)))))
(assert (not (< I29-y 2023)))
(assert (not (distinct I27-y I26-N)))
(assert (not (or (> I27-y (ite B5-F I5-y 0)) (and (= I27-y (ite B5-F I5-y 0)) (> I27-m I6-N)))))
(assert (not (> I26-N 2025)))
(assert (not (or (and (or (< I27-y 2022) (and (= I27-y 2022) (< I27-m 10)) (and (= I27-y 2022) (= I27-m 10) (< I27-d 1))) (< I26-N 2025)) (and (or (> I27-y 2022) (and (= I27-y 2022) (> I27-m 10)) (and (= I27-y 2022) (= I27-m 10) (> I27-d 1)) (and (= I27-y 2022) (= I27-m 10) (= I27-d 1))) (or (and (< I26-N 2025) (= I26-N 2024) (>= I6-N 5) (<= I6-N 12)) (and (< I26-N 2025) (distinct I26-N 2024)))))))
(assert (not (or (and (= I27-y (ite B5-F I5-y 0)) (< I27-m (- I6-N 4))) (and (distinct I27-y (ite B5-F I5-y 0)) (< I27-y (- (ite B5-F I5-y 0) 1))) (and (distinct I27-y (ite B5-F I5-y 0)) (= I27-y (- (ite B5-F I5-y 0) 1)) (> I27-m 8) (< I27-m (- (+ I6-N 12) 4))) (and (distinct I27-y (ite B5-F I5-y 0)) (= I27-y (- (ite B5-F I5-y 0) 1)) (<= I27-m 8)))))
(assert (not (or (= I30 0) (and (distinct I31 0) (= I32 0)) (and (distinct I33 0) (= I34 0)))))
(assert (not (> (ite (>= (- (- 2131) (div (* I30 55) 10)) 0) (- (- 2131) (div (* I30 55) 10)) (- (- (- 2131) (div (* I30 55) 10)))) 100)))
(assert (not (or (> (* I30 100) 85) (> (* I32 100) (+ (* I31 15) 100)) (> (* I34 100) (+ (* I33 15) 100)))))
(assert (not (> (ite (>= (- 19617902 (div (* I32 55) 10)) 0) (- 19617902 (div (* I32 55) 10)) (- (- 19617902 (div (* I32 55) 10)))) 100)))
(assert (not (> (ite (>= (- I35 (div (* I34 55) 10)) 0) (- I35 (div (* I34 55) 10)) (- (- I35 (div (* I34 55) 10)))) 100)))
(assert (not (or (and (distinct I37 0) (= I38 0)) (= I40 0) (and (distinct I42 0) (= I43 0)))))
(assert (not (> (ite (>= (- I39 (div (* I38 55) 10)) 0) (- I39 (div (* I38 55) 10)) (- (- I39 (div (* I38 55) 10)))) 100)))
(assert (not (or (> (* I38 100) (+ (* I37 15) 100)) (> (* I40 100) 145) (> (* I43 100) (+ (* I42 15) 100)))))
(assert (not (> (ite (>= (- I41 (div (* I40 55) 10)) 0) (- I41 (div (* I40 55) 10)) (- (- I41 (div (* I40 55) 10)))) 100)))
(assert (not (> (ite (>= (- I44 (div (* I43 55) 10)) 0) (- I44 (div (* I43 55) 10)) (- (- I44 (div (* I43 55) 10)))) 100)))
(assert (not (and B46-F (distinct I46 0) (= I47 0))))
(assert (not (and B47-F B48-F (> (ite (>= (- I48 (div (* I47 55) 10)) 0) (- I48 (div (* I47 55) 10)) (- (- I48 (div (* I47 55) 10)))) 100))))
(assert (not (and B47-F (> (* I47 100) (+ (* I46 15) 100)))))
(assert (not (or (> I36-y (ite B5-F I5-y 0)) (and (> I36-m I6-N) (= I36-y (ite B5-F I5-y 0))))))
(assert (not (or (> I17-y I16-y) (and (= I17-y I16-y) (> I17-m I16-m)) (and (= I17-y I16-y) (= I17-m I16-m) (> I17-d I16-d)))))
(assert (not (or (distinct I16-y (ite B5-F I5-y 0)) (distinct I16-m I6-N))))
(assert (not (< I16-y 2025)))
(assert (not (> (ite (>= (- I18 (- 5499999999995)) 0) (- I18 (- 5499999999995)) (- (- I18 (- 5499999999995)))) 100)))
(assert (not (> (ite (>= (- I19 (- 248)) 0) (- I19 (- 248)) (- (- I19 (- 248)))) 100)))
(assert (not (or (> I15-e-y I16-y) (and (= I15-e-y I16-y) (> I15-e-m I16-m)) (and (= I15-e-y I16-y) (= I15-e-m I16-m) (> I15-e-d I16-d)))))
(assert (not (or (< I15-s-y (- I15-e-y 1)) (and (= I15-s-y (- I15-e-y 1)) (< I15-s-m I15-e-m)) (and (= I15-s-y (- I15-e-y 1)) (= I15-s-m I15-e-m) (< I15-s-d (+ I15-e-d 1))))))
(assert (not (or (> I22-y I21-y) (and (= I22-y I21-y) (> I22-m I21-m)) (and (= I22-y I21-y) (= I22-m I21-m) (> I22-d I21-d)))))
(assert (not (or (distinct I21-y (ite B5-F I5-y 0)) (distinct I21-m I6-N))))
(assert (not (< I21-y 2025)))
(assert (not (and (distinct I23 0) (= I24 0))))
(assert (not (> (ite (>= (- I25 (div (* I24 55) 10)) 0) (- I25 (div (* I24 55) 10)) (- (- I25 (div (* I24 55) 10)))) 100)))
(assert (not (> (* I24 100) (+ (* I23 15) 100))))
(assert (not (or (> I20-e-y I21-y) (and (= I20-e-y I21-y) (> I20-e-m I21-m)) (and (= I20-e-y I21-y) (= I20-e-m I21-m) (> I20-e-d I21-d)))))
(assert (not (or (< I20-s-y (- I20-e-y 1)) (and (= I20-s-y (- I20-e-y 1)) (< I20-s-m I20-e-m)) (and (= I20-s-y (- I20-e-y 1)) (= I20-s-m I20-e-m) (< I20-s-d (+ I20-e-d 1))))))
(assert (not B51-F))
(assert (and B5-F B6-F))
(assert (not (and B5-F B6-F (or (< 2026 I5-y) (and (= 2026 I5-y) (<= 6 I6-N))))))
(assert (not (and B5-F B6-F (or (< 2027 I5-y) (and (= 2027 I5-y) (<= 6 I6-N))))))
(assert (not (and B75-F (not (and B77-F B78-F)))))
(assert (not (and (not B75-F) (or B77-F B78-F))))
(assert (not (and B3-F (= I2-N 0))))
(assert (not (and B3-F (= I3-i I1-i))))
(assert (not (distinct I70 (+ I57 I58 I55 I56 I61 I64 I67 I68 I65 I66 I69 93793765701628))))
(assert (not (distinct I70 (* I49 100))))
(set-info :major-phase |control constraints|)
(push 1)
(assert B78-F)
(set-info :status sat)
(check-sat)
(push 1)
(assert B59-F)
(set-info :status sat)
(check-sat)
(push 1)
(assert B75-F)
(set-info :status sat)
(check-sat)
(push 1)
(assert B51-F)
(set-info :status unsat)
(check-sat)
(pop 1)
(push 1)
(assert B73-F)
(set-info :status sat)
(check-sat)
(push 1)
(assert B58-F)
(set-info :status sat)
(check-sat)
(push 1)
(assert B80-F)
(set-info :status sat)
(check-sat)
(push 1)
(assert B6-F)
(set-info :status sat)
(check-sat)
(push 1)
(assert B81-F)
(set-info :status sat)
(check-sat)
(push 1)
(assert B4-F)
(set-info :status sat)
(check-sat)
(push 1)
(assert B3-F)
(set-info :status sat)
(check-sat)
(push 1)
(assert B7-F)
(set-info :status sat)
(check-sat)
(push 1)
(assert B69-F)
(set-info :status sat)
(check-sat)
(push 1)
(assert B54-F)
(set-info :status unsat)
(check-sat)
(pop 1)
(push 1)
(assert B79-F)
(set-info :status sat)
(check-sat)
(push 1)
(assert B77-F)
(set-info :status sat)
(check-sat)
(push 1)
(assert B65-F)
(set-info :status sat)
(check-sat)
(push 1)
(assert B66-F)
(set-info :status sat)
(check-sat)
(push 1)
(assert B55-F)
(set-info :status sat)
(check-sat)
(push 1)
(assert B68-F)
(set-info :status sat)
(check-sat)
(push 1)
(assert B56-F)
(set-info :status sat)
(check-sat)
(push 1)
(assert B48-F)
(set-info :status sat)
(check-sat)
(push 1)
(assert B67-F)
(set-info :status sat)
(check-sat)
(push 1)
(assert B53-F)
(set-info :status unsat)
(check-sat)
(pop 1)
(push 1)
(assert B63-F)
(set-info :status sat)
(check-sat)
(push 1)
(assert B60-F)
(set-info :status sat)
(check-sat)
(push 1)
(assert B62-F)
(set-info :status sat)
(check-sat)
(push 1)
(assert B57-F)
(set-info :status sat)
(check-sat)
(push 1)
(assert B61-F)
(set-info :status sat)
(check-sat)
(push 1)
(assert B46-F)
(set-info :status sat)
(check-sat)
(push 1)
(assert B64-F)
(set-info :status sat)
(check-sat)
(push 1)
(assert B72-F)
(set-info :status sat)
(check-sat)
(push 1)
(assert B5-F)
(set-info :status sat)
(check-sat)
(push 1)
(assert B47-F)
(set-info :status sat)
(check-sat)
(exit)

